# Melting quenching silica under NVT

#read minimized quartz model

read_restart restart.quartz.cubic.10

#potential
kspace_style  pppm 0.00001
pair_style buck/coul/long 8.0
pair_coeff 1 1 0.0 0.10 0.0
pair_coeff 1 2 18003.7572 0.205205 133.5381
pair_coeff 2 2 1388.7730 0.362319 175.0
 
variable density equal "(mass(all)*1.660538782) / (vol)"


print "Final density: ${density}"

neighbor  2.5 bin
neigh_modify  every 1 delay 0 check yes page 500000 one 50000

#Initialise velocities
compute new all temp

velocity  all create 300.0 5648459 temp new


#Thermostat
fix 1 all nvt temp 300.0 300.0 1.0



# Run
timestep        0.001
thermo          100
thermo_style custom step temp epair emol etotal press cpuremain lx ly lz


#Dump format: dump ID group-ID style N file args

dump  1 all custom 1000 ./dump/*.dump_melt id type x y z
dump_modify   1 sort id


dump		2 all image 1000 ./dump/image_melt1.*.jpg type type &
		zoom 1 adiam 1.2
dump_modify	2 pad 4



#Number of steps to run
run 1000
unfix 1

# Melting

fix 1 all nvt temp 300.0 2800.0 1.0

run 50000
unfix 1
variable den1 equal "(mass(all)*1.660538782)/(vol)"
print "liquid density: ${den1}"


# equilibrium
fix 1 all nvt temp 2850.0 2850.0 1.0

undump 1
undump 2
dump  1 all custom 1000 ./dump/*.dump_quench id type x y z
dump_modify   1 sort id
dump		2 all image 1000 ./dump/image_quench.*.jpg type type &
		zoom 1 adiam 1.2
dump_modify	2 pad 4

#Number of steps to run
run 5000
unfix 1

#quenching
fix 1 all nvt temp 2850.0 300.0 1.0

run 50000
unfix 1
variable den2 equal "(mass(all)*1.660538782)/(vol)"
print "glass density: ${den2}"


variable natoms equal "count(all)" 
print "Number of atoms = ${natoms};"

write_restart restart.glass.nvt.cubic.10
