# Input file for uniaxial tensile loading of single crystal Silicon


# ------------------------ INITIALIZATION ----------------------------
units 		metal
dimension	3
boundary	p	p	p
atom_style	atomic
variable latparam equal 5.431

# ----------------------- ATOM DEFINITION ----------------------------

#required orientation for crack plane of used later (1 1 1)
lattice 	diamond ${latparam} orient x 1 1 -2 orient y 1 1 1 orient z 1 -1 0
region		whole block 0 135 0 42 0 0.5 units lattice
create_box	1 whole
create_atoms	1 region whole

mass 1 28.0

variable natoms equal "count(all)" 
print "Number of atoms = ${natoms};"

# ------------------------ FORCE FIELDS ------------------------------
pair_style	sw
pair_coeff	* * Si.sw Si

# ------------------------- SETTINGS ---------------------------------
compute csym all centro/atom fcc
compute peratom all pe/atom 

######################################
# EQUILIBRATION
reset_timestep	0
timestep 0.001
velocity all create 0.0 12345 mom yes rot no
fix 1 all npt temp 0.00 0.00 0.1 iso 0 0 1 drag 2 

# Set thermo output
thermo 50
thermo_style custom step lx ly lz press pxx pyy pzz pe temp

# Run for at least 10 picosecond (assuming 1 fs timestep)
run 10000
unfix 1

# Store final cell length for strain calculations
variable tmp equal "lx"
variable L0 equal ${tmp}
variable tmp equal "ly"
variable L1 equal ${tmp}

print "Initial x Length, L0: ${L0}"
print "Initial y Length, L1: ${L1}"


######################################
# DEFORMATION
reset_timestep	0

fix		1 all npt temp 0.0 0.0 0.1 y 0 0 1 z 0 0 1 drag 2
variable srate equal 1.0e10
variable srate1 equal "v_srate / 1.0e15"
fix		2 all deform 1 x erate ${srate1} units box remap x

# Output strain and stress info to file
# for units metal, pressure is in [bars] = 100 [kPa] = 1/10000 [GPa]
# p2, p3, p4 are in GPa
variable strain equal "(lx - v_L0)/v_L0"
variable strain1 equal "(ly - v_L1)/v_L1"
variable p1 equal "v_strain"
variable p2 equal "-pxx/10000"
variable p3 equal "-pyy/10000"
variable p4 equal "-pzz/10000"
variable p5 equal "v_strain1"

fix def1 all print 50 "${p1} ${p2} ${p3} ${p4} ${p5}" file stress_strain_50.txt screen no

# Use cfg for AtomEye
dump 		1 all cfg 250 ./dump/dump.tensile_*.cfg mass type xs ys zs c_csym c_peratom fx fy fz
dump		2 all movie 100 ./dump/movie_tensile_Si.mpg type type &
		zoom 1.3 adiam 1.3
dump_modify	2 pad 4

#vmd files
dump		3 all atom 500 ./dump/dump.crack_*.atom

dump		4 all image 250 ./dump/image.*.jpg type type &
		zoom 1.3 adiam 1.2
dump_modify	4 pad 4


dump_modify 1 element Si

# Display thermo
thermo 	100
thermo_style	custom step v_strain temp v_p2 v_p3 v_p4 ke pe press

run		40000

variable natoms equal "count(all)" 
print "Number of atoms = ${natoms};"


######################################
# SIMULATION DONE
print "All done"
